100
32
31
23
29
23
30
18
19
4
4
2
13
14
27
32
24
23
25
16
29
3
20
8
21
8
22
16
17
3
26
14
1
5
21
1
2
21
8
18
2
2
12
16
24
16
18
8
8
19
26
10
13
16
20
28
12
5
11
10
16
20
6
3
30
10
19
30
20
27
31
25
7
31
23
1
26
15
7
27
10
16
19
30
27
20
6
24
22
15
11
29
10
17
4
31
31
32
24
15
18
29